magmas/benchmarks/input3/Equation1842_implies_Equation1477.p.smt2
(declare-sort $$unsorted 0)
(declare-fun tptp.op ($$unsorted $$unsorted) $$unsorted)
(assert (forall ((X0 $$unsorted) (X1 $$unsorted) (X2 $$unsorted) (X3 $$unsorted) (X4 $$unsorted)) (= X0 (tptp.op (tptp.op X0 (tptp.op X0 X1)) (tptp.op X1 X2)))))
(assert (not (forall ((X0 $$unsorted) (X1 $$unsorted) (X2 $$unsorted) (X3 $$unsorted) (X4 $$unsorted)) (= X0 (tptp.op (tptp.op X0 X1) (tptp.op X2 (tptp.op X3 X4)))))))
(set-info :filename Equation1842_implies_Equation1477)
(check-sat-assuming ( true ))
