magmas/benchmarks/p/input3/Equation1842_implies_Equation1477.p
fof(a1, axiom,
    ! [X0, X1, X2, X3, X4] :
        (X0 = op(op(X0,op(X0,X1)),op(X1,X2)))
).

fof(conjecture0, conjecture,
    ! [X0, X1, X2, X3, X4] :
        (X0 = op(op(X0,X1),op(X2,op(X3,X4))))
).
